p cnf 101 2500
1 2 0
3 2 0
3 1 0
3 4 0
5 2 0
5 1 0
5 4 0
5 3 0
5 6 0
7 2 0
7 1 0
7 4 0
7 3 0
7 6 0
7 5 0
7 8 0
9 2 0
9 1 0
9 4 0
9 3 0
9 6 0
9 5 0
9 8 0
9 7 0
9 10 0
11 2 0
11 1 0
11 4 0
11 3 0
11 6 0
11 5 0
11 8 0
11 7 0
11 10 0
11 9 0
11 12 0
13 2 0
13 1 0
13 4 0
13 3 0
13 6 0
13 5 0
13 8 0
13 7 0
13 10 0
13 9 0
13 12 0
13 11 0
13 14 0
15 2 0
15 1 0
15 4 0
15 3 0
15 6 0
15 5 0
15 8 0
15 7 0
15 10 0
15 9 0
15 12 0
15 11 0
15 14 0
15 13 0
15 16 0
17 2 0
17 1 0
17 4 0
17 3 0
17 6 0
17 5 0
17 8 0
17 7 0
17 10 0
17 9 0
17 12 0
17 11 0
17 14 0
17 13 0
17 16 0
17 15 0
17 18 0
19 2 0
19 1 0
19 4 0
19 3 0
19 6 0
19 5 0
19 8 0
19 7 0
19 10 0
19 9 0
19 12 0
19 11 0
19 14 0
19 13 0
19 16 0
19 15 0
19 18 0
19 17 0
19 20 0
21 2 0
21 1 0
21 4 0
21 3 0
21 6 0
21 5 0
21 8 0
21 7 0
21 10 0
21 9 0
21 12 0
21 11 0
21 14 0
21 13 0
21 16 0
21 15 0
21 18 0
21 17 0
21 20 0
21 19 0
21 22 0
23 2 0
23 1 0
23 4 0
23 3 0
23 6 0
23 5 0
23 8 0
23 7 0
23 10 0
23 9 0
23 12 0
23 11 0
23 14 0
23 13 0
23 16 0
23 15 0
23 18 0
23 17 0
23 20 0
23 19 0
23 22 0
23 21 0
23 24 0
25 2 0
25 1 0
25 4 0
25 3 0
25 6 0
25 5 0
25 8 0
25 7 0
25 10 0
25 9 0
25 12 0
25 11 0
25 14 0
25 13 0
25 16 0
25 15 0
25 18 0
25 17 0
25 20 0
25 19 0
25 22 0
25 21 0
25 24 0
25 23 0
25 26 0
27 2 0
27 1 0
27 4 0
27 3 0
27 6 0
27 5 0
27 8 0
27 7 0
27 10 0
27 9 0
27 12 0
27 11 0
27 14 0
27 13 0
27 16 0
27 15 0
27 18 0
27 17 0
27 20 0
27 19 0
27 22 0
27 21 0
27 24 0
27 23 0
27 26 0
27 25 0
27 28 0
29 2 0
29 1 0
29 4 0
29 3 0
29 6 0
29 5 0
29 8 0
29 7 0
29 10 0
29 9 0
29 12 0
29 11 0
29 14 0
29 13 0
29 16 0
29 15 0
29 18 0
29 17 0
29 20 0
29 19 0
29 22 0
29 21 0
29 24 0
29 23 0
29 26 0
29 25 0
29 28 0
29 27 0
29 30 0
31 2 0
31 1 0
31 4 0
31 3 0
31 6 0
31 5 0
31 8 0
31 7 0
31 10 0
31 9 0
31 12 0
31 11 0
31 14 0
31 13 0
31 16 0
31 15 0
31 18 0
31 17 0
31 20 0
31 19 0
31 22 0
31 21 0
31 24 0
31 23 0
31 26 0
31 25 0
31 28 0
31 27 0
31 30 0
31 29 0
31 32 0
33 2 0
33 1 0
33 4 0
33 3 0
33 6 0
33 5 0
33 8 0
33 7 0
33 10 0
33 9 0
33 12 0
33 11 0
33 14 0
33 13 0
33 16 0
33 15 0
33 18 0
33 17 0
33 20 0
33 19 0
33 22 0
33 21 0
33 24 0
33 23 0
33 26 0
33 25 0
33 28 0
33 27 0
33 30 0
33 29 0
33 32 0
33 31 0
33 34 0
35 2 0
35 1 0
35 4 0
35 3 0
35 6 0
35 5 0
35 8 0
35 7 0
35 10 0
35 9 0
35 12 0
35 11 0
35 14 0
35 13 0
35 16 0
35 15 0
35 18 0
35 17 0
35 20 0
35 19 0
35 22 0
35 21 0
35 24 0
35 23 0
35 26 0
35 25 0
35 28 0
35 27 0
35 30 0
35 29 0
35 32 0
35 31 0
35 34 0
35 33 0
35 36 0
37 2 0
37 1 0
37 4 0
37 3 0
37 6 0
37 5 0
37 8 0
37 7 0
37 10 0
37 9 0
37 12 0
37 11 0
37 14 0
37 13 0
37 16 0
37 15 0
37 18 0
37 17 0
37 20 0
37 19 0
37 22 0
37 21 0
37 24 0
37 23 0
37 26 0
37 25 0
37 28 0
37 27 0
37 30 0
37 29 0
37 32 0
37 31 0
37 34 0
37 33 0
37 36 0
37 35 0
37 38 0
39 2 0
39 1 0
39 4 0
39 3 0
39 6 0
39 5 0
39 8 0
39 7 0
39 10 0
39 9 0
39 12 0
39 11 0
39 14 0
39 13 0
39 16 0
39 15 0
39 18 0
39 17 0
39 20 0
39 19 0
39 22 0
39 21 0
39 24 0
39 23 0
39 26 0
39 25 0
39 28 0
39 27 0
39 30 0
39 29 0
39 32 0
39 31 0
39 34 0
39 33 0
39 36 0
39 35 0
39 38 0
39 37 0
39 40 0
41 2 0
41 1 0
41 4 0
41 3 0
41 6 0
41 5 0
41 8 0
41 7 0
41 10 0
41 9 0
41 12 0
41 11 0
41 14 0
41 13 0
41 16 0
41 15 0
41 18 0
41 17 0
41 20 0
41 19 0
41 22 0
41 21 0
41 24 0
41 23 0
41 26 0
41 25 0
41 28 0
41 27 0
41 30 0
41 29 0
41 32 0
41 31 0
41 34 0
41 33 0
41 36 0
41 35 0
41 38 0
41 37 0
41 40 0
41 39 0
41 42 0
43 2 0
43 1 0
43 4 0
43 3 0
43 6 0
43 5 0
43 8 0
43 7 0
43 10 0
43 9 0
43 12 0
43 11 0
43 14 0
43 13 0
43 16 0
43 15 0
43 18 0
43 17 0
43 20 0
43 19 0
43 22 0
43 21 0
43 24 0
43 23 0
43 26 0
43 25 0
43 28 0
43 27 0
43 30 0
43 29 0
43 32 0
43 31 0
43 34 0
43 33 0
43 36 0
43 35 0
43 38 0
43 37 0
43 40 0
43 39 0
43 42 0
43 41 0
43 44 0
45 2 0
45 1 0
45 4 0
45 3 0
45 6 0
45 5 0
45 8 0
45 7 0
45 10 0
45 9 0
45 12 0
45 11 0
45 14 0
45 13 0
45 16 0
45 15 0
45 18 0
45 17 0
45 20 0
45 19 0
45 22 0
45 21 0
45 24 0
45 23 0
45 26 0
45 25 0
45 28 0
45 27 0
45 30 0
45 29 0
45 32 0
45 31 0
45 34 0
45 33 0
45 36 0
45 35 0
45 38 0
45 37 0
45 40 0
45 39 0
45 42 0
45 41 0
45 44 0
45 43 0
45 46 0
47 2 0
47 1 0
47 4 0
47 3 0
47 6 0
47 5 0
47 8 0
47 7 0
47 10 0
47 9 0
47 12 0
47 11 0
47 14 0
47 13 0
47 16 0
47 15 0
47 18 0
47 17 0
47 20 0
47 19 0
47 22 0
47 21 0
47 24 0
47 23 0
47 26 0
47 25 0
47 28 0
47 27 0
47 30 0
47 29 0
47 32 0
47 31 0
47 34 0
47 33 0
47 36 0
47 35 0
47 38 0
47 37 0
47 40 0
47 39 0
47 42 0
47 41 0
47 44 0
47 43 0
47 46 0
47 45 0
47 48 0
49 2 0
49 1 0
49 4 0
49 3 0
49 6 0
49 5 0
49 8 0
49 7 0
49 10 0
49 9 0
49 12 0
49 11 0
49 14 0
49 13 0
49 16 0
49 15 0
49 18 0
49 17 0
49 20 0
49 19 0
49 22 0
49 21 0
49 24 0
49 23 0
49 26 0
49 25 0
49 28 0
49 27 0
49 30 0
49 29 0
49 32 0
49 31 0
49 34 0
49 33 0
49 36 0
49 35 0
49 38 0
49 37 0
49 40 0
49 39 0
49 42 0
49 41 0
49 44 0
49 43 0
49 46 0
49 45 0
49 48 0
49 47 0
49 50 0
51 2 0
51 1 0
51 4 0
51 3 0
51 6 0
51 5 0
51 8 0
51 7 0
51 10 0
51 9 0
51 12 0
51 11 0
51 14 0
51 13 0
51 16 0
51 15 0
51 18 0
51 17 0
51 20 0
51 19 0
51 22 0
51 21 0
51 24 0
51 23 0
51 26 0
51 25 0
51 28 0
51 27 0
51 30 0
51 29 0
51 32 0
51 31 0
51 34 0
51 33 0
51 36 0
51 35 0
51 38 0
51 37 0
51 40 0
51 39 0
51 42 0
51 41 0
51 44 0
51 43 0
51 46 0
51 45 0
51 48 0
51 47 0
51 50 0
51 49 0
51 52 0
53 2 0
53 1 0
53 4 0
53 3 0
53 6 0
53 5 0
53 8 0
53 7 0
53 10 0
53 9 0
53 12 0
53 11 0
53 14 0
53 13 0
53 16 0
53 15 0
53 18 0
53 17 0
53 20 0
53 19 0
53 22 0
53 21 0
53 24 0
53 23 0
53 26 0
53 25 0
53 28 0
53 27 0
53 30 0
53 29 0
53 32 0
53 31 0
53 34 0
53 33 0
53 36 0
53 35 0
53 38 0
53 37 0
53 40 0
53 39 0
53 42 0
53 41 0
53 44 0
53 43 0
53 46 0
53 45 0
53 48 0
53 47 0
53 50 0
53 49 0
53 52 0
53 51 0
53 54 0
55 2 0
55 1 0
55 4 0
55 3 0
55 6 0
55 5 0
55 8 0
55 7 0
55 10 0
55 9 0
55 12 0
55 11 0
55 14 0
55 13 0
55 16 0
55 15 0
55 18 0
55 17 0
55 20 0
55 19 0
55 22 0
55 21 0
55 24 0
55 23 0
55 26 0
55 25 0
55 28 0
55 27 0
55 30 0
55 29 0
55 32 0
55 31 0
55 34 0
55 33 0
55 36 0
55 35 0
55 38 0
55 37 0
55 40 0
55 39 0
55 42 0
55 41 0
55 44 0
55 43 0
55 46 0
55 45 0
55 48 0
55 47 0
55 50 0
55 49 0
55 52 0
55 51 0
55 54 0
55 53 0
55 56 0
57 2 0
57 1 0
57 4 0
57 3 0
57 6 0
57 5 0
57 8 0
57 7 0
57 10 0
57 9 0
57 12 0
57 11 0
57 14 0
57 13 0
57 16 0
57 15 0
57 18 0
57 17 0
57 20 0
57 19 0
57 22 0
57 21 0
57 24 0
57 23 0
57 26 0
57 25 0
57 28 0
57 27 0
57 30 0
57 29 0
57 32 0
57 31 0
57 34 0
57 33 0
57 36 0
57 35 0
57 38 0
57 37 0
57 40 0
57 39 0
57 42 0
57 41 0
57 44 0
57 43 0
57 46 0
57 45 0
57 48 0
57 47 0
57 50 0
57 49 0
57 52 0
57 51 0
57 54 0
57 53 0
57 56 0
57 55 0
57 58 0
59 2 0
59 1 0
59 4 0
59 3 0
59 6 0
59 5 0
59 8 0
59 7 0
59 10 0
59 9 0
59 12 0
59 11 0
59 14 0
59 13 0
59 16 0
59 15 0
59 18 0
59 17 0
59 20 0
59 19 0
59 22 0
59 21 0
59 24 0
59 23 0
59 26 0
59 25 0
59 28 0
59 27 0
59 30 0
59 29 0
59 32 0
59 31 0
59 34 0
59 33 0
59 36 0
59 35 0
59 38 0
59 37 0
59 40 0
59 39 0
59 42 0
59 41 0
59 44 0
59 43 0
59 46 0
59 45 0
59 48 0
59 47 0
59 50 0
59 49 0
59 52 0
59 51 0
59 54 0
59 53 0
59 56 0
59 55 0
59 58 0
59 57 0
59 60 0
61 2 0
61 1 0
61 4 0
61 3 0
61 6 0
61 5 0
61 8 0
61 7 0
61 10 0
61 9 0
61 12 0
61 11 0
61 14 0
61 13 0
61 16 0
61 15 0
61 18 0
61 17 0
61 20 0
61 19 0
61 22 0
61 21 0
61 24 0
61 23 0
61 26 0
61 25 0
61 28 0
61 27 0
61 30 0
61 29 0
61 32 0
61 31 0
61 34 0
61 33 0
61 36 0
61 35 0
61 38 0
61 37 0
61 40 0
61 39 0
61 42 0
61 41 0
61 44 0
61 43 0
61 46 0
61 45 0
61 48 0
61 47 0
61 50 0
61 49 0
61 52 0
61 51 0
61 54 0
61 53 0
61 56 0
61 55 0
61 58 0
61 57 0
61 60 0
61 59 0
61 62 0
63 2 0
63 1 0
63 4 0
63 3 0
63 6 0
63 5 0
63 8 0
63 7 0
63 10 0
63 9 0
63 12 0
63 11 0
63 14 0
63 13 0
63 16 0
63 15 0
63 18 0
63 17 0
63 20 0
63 19 0
63 22 0
63 21 0
63 24 0
63 23 0
63 26 0
63 25 0
63 28 0
63 27 0
63 30 0
63 29 0
63 32 0
63 31 0
63 34 0
63 33 0
63 36 0
63 35 0
63 38 0
63 37 0
63 40 0
63 39 0
63 42 0
63 41 0
63 44 0
63 43 0
63 46 0
63 45 0
63 48 0
63 47 0
63 50 0
63 49 0
63 52 0
63 51 0
63 54 0
63 53 0
63 56 0
63 55 0
63 58 0
63 57 0
63 60 0
63 59 0
63 62 0
63 61 0
63 64 0
65 2 0
65 1 0
65 4 0
65 3 0
65 6 0
65 5 0
65 8 0
65 7 0
65 10 0
65 9 0
65 12 0
65 11 0
65 14 0
65 13 0
65 16 0
65 15 0
65 18 0
65 17 0
65 20 0
65 19 0
65 22 0
65 21 0
65 24 0
65 23 0
65 26 0
65 25 0
65 28 0
65 27 0
65 30 0
65 29 0
65 32 0
65 31 0
65 34 0
65 33 0
65 36 0
65 35 0
65 38 0
65 37 0
65 40 0
65 39 0
65 42 0
65 41 0
65 44 0
65 43 0
65 46 0
65 45 0
65 48 0
65 47 0
65 50 0
65 49 0
65 52 0
65 51 0
65 54 0
65 53 0
65 56 0
65 55 0
65 58 0
65 57 0
65 60 0
65 59 0
65 62 0
65 61 0
65 64 0
65 63 0
65 66 0
67 2 0
67 1 0
67 4 0
67 3 0
67 6 0
67 5 0
67 8 0
67 7 0
67 10 0
67 9 0
67 12 0
67 11 0
67 14 0
67 13 0
67 16 0
67 15 0
67 18 0
67 17 0
67 20 0
67 19 0
67 22 0
67 21 0
67 24 0
67 23 0
67 26 0
67 25 0
67 28 0
67 27 0
67 30 0
67 29 0
67 32 0
67 31 0
67 34 0
67 33 0
67 36 0
67 35 0
67 38 0
67 37 0
67 40 0
67 39 0
67 42 0
67 41 0
67 44 0
67 43 0
67 46 0
67 45 0
67 48 0
67 47 0
67 50 0
67 49 0
67 52 0
67 51 0
67 54 0
67 53 0
67 56 0
67 55 0
67 58 0
67 57 0
67 60 0
67 59 0
67 62 0
67 61 0
67 64 0
67 63 0
67 66 0
67 65 0
67 68 0
69 2 0
69 1 0
69 4 0
69 3 0
69 6 0
69 5 0
69 8 0
69 7 0
69 10 0
69 9 0
69 12 0
69 11 0
69 14 0
69 13 0
69 16 0
69 15 0
69 18 0
69 17 0
69 20 0
69 19 0
69 22 0
69 21 0
69 24 0
69 23 0
69 26 0
69 25 0
69 28 0
69 27 0
69 30 0
69 29 0
69 32 0
69 31 0
69 34 0
69 33 0
69 36 0
69 35 0
69 38 0
69 37 0
69 40 0
69 39 0
69 42 0
69 41 0
69 44 0
69 43 0
69 46 0
69 45 0
69 48 0
69 47 0
69 50 0
69 49 0
69 52 0
69 51 0
69 54 0
69 53 0
69 56 0
69 55 0
69 58 0
69 57 0
69 60 0
69 59 0
69 62 0
69 61 0
69 64 0
69 63 0
69 66 0
69 65 0
69 68 0
69 67 0
69 70 0
71 2 0
71 1 0
71 4 0
71 3 0
71 6 0
71 5 0
71 8 0
71 7 0
71 10 0
71 9 0
71 12 0
71 11 0
71 14 0
71 13 0
71 16 0
71 15 0
71 18 0
71 17 0
71 20 0
71 19 0
71 22 0
71 21 0
71 24 0
71 23 0
71 26 0
71 25 0
71 28 0
71 27 0
71 30 0
71 29 0
71 32 0
71 31 0
71 34 0
71 33 0
71 36 0
71 35 0
71 38 0
71 37 0
71 40 0
71 39 0
71 42 0
71 41 0
71 44 0
71 43 0
71 46 0
71 45 0
71 48 0
71 47 0
71 50 0
71 49 0
71 52 0
71 51 0
71 54 0
71 53 0
71 56 0
71 55 0
71 58 0
71 57 0
71 60 0
71 59 0
71 62 0
71 61 0
71 64 0
71 63 0
71 66 0
71 65 0
71 68 0
71 67 0
71 70 0
71 69 0
71 72 0
73 2 0
73 1 0
73 4 0
73 3 0
73 6 0
73 5 0
73 8 0
73 7 0
73 10 0
73 9 0
73 12 0
73 11 0
73 14 0
73 13 0
73 16 0
73 15 0
73 18 0
73 17 0
73 20 0
73 19 0
73 22 0
73 21 0
73 24 0
73 23 0
73 26 0
73 25 0
73 28 0
73 27 0
73 30 0
73 29 0
73 32 0
73 31 0
73 34 0
73 33 0
73 36 0
73 35 0
73 38 0
73 37 0
73 40 0
73 39 0
73 42 0
73 41 0
73 44 0
73 43 0
73 46 0
73 45 0
73 48 0
73 47 0
73 50 0
73 49 0
73 52 0
73 51 0
73 54 0
73 53 0
73 56 0
73 55 0
73 58 0
73 57 0
73 60 0
73 59 0
73 62 0
73 61 0
73 64 0
73 63 0
73 66 0
73 65 0
73 68 0
73 67 0
73 70 0
73 69 0
73 72 0
73 71 0
73 74 0
75 2 0
75 1 0
75 4 0
75 3 0
75 6 0
75 5 0
75 8 0
75 7 0
75 10 0
75 9 0
75 12 0
75 11 0
75 14 0
75 13 0
75 16 0
75 15 0
75 18 0
75 17 0
75 20 0
75 19 0
75 22 0
75 21 0
75 24 0
75 23 0
75 26 0
75 25 0
75 28 0
75 27 0
75 30 0
75 29 0
75 32 0
75 31 0
75 34 0
75 33 0
75 36 0
75 35 0
75 38 0
75 37 0
75 40 0
75 39 0
75 42 0
75 41 0
75 44 0
75 43 0
75 46 0
75 45 0
75 48 0
75 47 0
75 50 0
75 49 0
75 52 0
75 51 0
75 54 0
75 53 0
75 56 0
75 55 0
75 58 0
75 57 0
75 60 0
75 59 0
75 62 0
75 61 0
75 64 0
75 63 0
75 66 0
75 65 0
75 68 0
75 67 0
75 70 0
75 69 0
75 72 0
75 71 0
75 74 0
75 73 0
75 76 0
77 2 0
77 1 0
77 4 0
77 3 0
77 6 0
77 5 0
77 8 0
77 7 0
77 10 0
77 9 0
77 12 0
77 11 0
77 14 0
77 13 0
77 16 0
77 15 0
77 18 0
77 17 0
77 20 0
77 19 0
77 22 0
77 21 0
77 24 0
77 23 0
77 26 0
77 25 0
77 28 0
77 27 0
77 30 0
77 29 0
77 32 0
77 31 0
77 34 0
77 33 0
77 36 0
77 35 0
77 38 0
77 37 0
77 40 0
77 39 0
77 42 0
77 41 0
77 44 0
77 43 0
77 46 0
77 45 0
77 48 0
77 47 0
77 50 0
77 49 0
77 52 0
77 51 0
77 54 0
77 53 0
77 56 0
77 55 0
77 58 0
77 57 0
77 60 0
77 59 0
77 62 0
77 61 0
77 64 0
77 63 0
77 66 0
77 65 0
77 68 0
77 67 0
77 70 0
77 69 0
77 72 0
77 71 0
77 74 0
77 73 0
77 76 0
77 75 0
77 78 0
79 2 0
79 1 0
79 4 0
79 3 0
79 6 0
79 5 0
79 8 0
79 7 0
79 10 0
79 9 0
79 12 0
79 11 0
79 14 0
79 13 0
79 16 0
79 15 0
79 18 0
79 17 0
79 20 0
79 19 0
79 22 0
79 21 0
79 24 0
79 23 0
79 26 0
79 25 0
79 28 0
79 27 0
79 30 0
79 29 0
79 32 0
79 31 0
79 34 0
79 33 0
79 36 0
79 35 0
79 38 0
79 37 0
79 40 0
79 39 0
79 42 0
79 41 0
79 44 0
79 43 0
79 46 0
79 45 0
79 48 0
79 47 0
79 50 0
79 49 0
79 52 0
79 51 0
79 54 0
79 53 0
79 56 0
79 55 0
79 58 0
79 57 0
79 60 0
79 59 0
79 62 0
79 61 0
79 64 0
79 63 0
79 66 0
79 65 0
79 68 0
79 67 0
79 70 0
79 69 0
79 72 0
79 71 0
79 74 0
79 73 0
79 76 0
79 75 0
79 78 0
79 77 0
79 80 0
81 2 0
81 1 0
81 4 0
81 3 0
81 6 0
81 5 0
81 8 0
81 7 0
81 10 0
81 9 0
81 12 0
81 11 0
81 14 0
81 13 0
81 16 0
81 15 0
81 18 0
81 17 0
81 20 0
81 19 0
81 22 0
81 21 0
81 24 0
81 23 0
81 26 0
81 25 0
81 28 0
81 27 0
81 30 0
81 29 0
81 32 0
81 31 0
81 34 0
81 33 0
81 36 0
81 35 0
81 38 0
81 37 0
81 40 0
81 39 0
81 42 0
81 41 0
81 44 0
81 43 0
81 46 0
81 45 0
81 48 0
81 47 0
81 50 0
81 49 0
81 52 0
81 51 0
81 54 0
81 53 0
81 56 0
81 55 0
81 58 0
81 57 0
81 60 0
81 59 0
81 62 0
81 61 0
81 64 0
81 63 0
81 66 0
81 65 0
81 68 0
81 67 0
81 70 0
81 69 0
81 72 0
81 71 0
81 74 0
81 73 0
81 76 0
81 75 0
81 78 0
81 77 0
81 80 0
81 79 0
81 82 0
83 2 0
83 1 0
83 4 0
83 3 0
83 6 0
83 5 0
83 8 0
83 7 0
83 10 0
83 9 0
83 12 0
83 11 0
83 14 0
83 13 0
83 16 0
83 15 0
83 18 0
83 17 0
83 20 0
83 19 0
83 22 0
83 21 0
83 24 0
83 23 0
83 26 0
83 25 0
83 28 0
83 27 0
83 30 0
83 29 0
83 32 0
83 31 0
83 34 0
83 33 0
83 36 0
83 35 0
83 38 0
83 37 0
83 40 0
83 39 0
83 42 0
83 41 0
83 44 0
83 43 0
83 46 0
83 45 0
83 48 0
83 47 0
83 50 0
83 49 0
83 52 0
83 51 0
83 54 0
83 53 0
83 56 0
83 55 0
83 58 0
83 57 0
83 60 0
83 59 0
83 62 0
83 61 0
83 64 0
83 63 0
83 66 0
83 65 0
83 68 0
83 67 0
83 70 0
83 69 0
83 72 0
83 71 0
83 74 0
83 73 0
83 76 0
83 75 0
83 78 0
83 77 0
83 80 0
83 79 0
83 82 0
83 81 0
83 84 0
85 2 0
85 1 0
85 4 0
85 3 0
85 6 0
85 5 0
85 8 0
85 7 0
85 10 0
85 9 0
85 12 0
85 11 0
85 14 0
85 13 0
85 16 0
85 15 0
85 18 0
85 17 0
85 20 0
85 19 0
85 22 0
85 21 0
85 24 0
85 23 0
85 26 0
85 25 0
85 28 0
85 27 0
85 30 0
85 29 0
85 32 0
85 31 0
85 34 0
85 33 0
85 36 0
85 35 0
85 38 0
85 37 0
85 40 0
85 39 0
85 42 0
85 41 0
85 44 0
85 43 0
85 46 0
85 45 0
85 48 0
85 47 0
85 50 0
85 49 0
85 52 0
85 51 0
85 54 0
85 53 0
85 56 0
85 55 0
85 58 0
85 57 0
85 60 0
85 59 0
85 62 0
85 61 0
85 64 0
85 63 0
85 66 0
85 65 0
85 68 0
85 67 0
85 70 0
85 69 0
85 72 0
85 71 0
85 74 0
85 73 0
85 76 0
85 75 0
85 78 0
85 77 0
85 80 0
85 79 0
85 82 0
85 81 0
85 84 0
85 83 0
85 86 0
87 2 0
87 1 0
87 4 0
87 3 0
87 6 0
87 5 0
87 8 0
87 7 0
87 10 0
87 9 0
87 12 0
87 11 0
87 14 0
87 13 0
87 16 0
87 15 0
87 18 0
87 17 0
87 20 0
87 19 0
87 22 0
87 21 0
87 24 0
87 23 0
87 26 0
87 25 0
87 28 0
87 27 0
87 30 0
87 29 0
87 32 0
87 31 0
87 34 0
87 33 0
87 36 0
87 35 0
87 38 0
87 37 0
87 40 0
87 39 0
87 42 0
87 41 0
87 44 0
87 43 0
87 46 0
87 45 0
87 48 0
87 47 0
87 50 0
87 49 0
87 52 0
87 51 0
87 54 0
87 53 0
87 56 0
87 55 0
87 58 0
87 57 0
87 60 0
87 59 0
87 62 0
87 61 0
87 64 0
87 63 0
87 66 0
87 65 0
87 68 0
87 67 0
87 70 0
87 69 0
87 72 0
87 71 0
87 74 0
87 73 0
87 76 0
87 75 0
87 78 0
87 77 0
87 80 0
87 79 0
87 82 0
87 81 0
87 84 0
87 83 0
87 86 0
87 85 0
87 88 0
89 2 0
89 1 0
89 4 0
89 3 0
89 6 0
89 5 0
89 8 0
89 7 0
89 10 0
89 9 0
89 12 0
89 11 0
89 14 0
89 13 0
89 16 0
89 15 0
89 18 0
89 17 0
89 20 0
89 19 0
89 22 0
89 21 0
89 24 0
89 23 0
89 26 0
89 25 0
89 28 0
89 27 0
89 30 0
89 29 0
89 32 0
89 31 0
89 34 0
89 33 0
89 36 0
89 35 0
89 38 0
89 37 0
89 40 0
89 39 0
89 42 0
89 41 0
89 44 0
89 43 0
89 46 0
89 45 0
89 48 0
89 47 0
89 50 0
89 49 0
89 52 0
89 51 0
89 54 0
89 53 0
89 56 0
89 55 0
89 58 0
89 57 0
89 60 0
89 59 0
89 62 0
89 61 0
89 64 0
89 63 0
89 66 0
89 65 0
89 68 0
89 67 0
89 70 0
89 69 0
89 72 0
89 71 0
89 74 0
89 73 0
89 76 0
89 75 0
89 78 0
89 77 0
89 80 0
89 79 0
89 82 0
89 81 0
89 84 0
89 83 0
89 86 0
89 85 0
89 88 0
89 87 0
89 90 0
91 2 0
91 1 0
91 4 0
91 3 0
91 6 0
91 5 0
91 8 0
91 7 0
91 10 0
91 9 0
91 12 0
91 11 0
91 14 0
91 13 0
91 16 0
91 15 0
91 18 0
91 17 0
91 20 0
91 19 0
91 22 0
91 21 0
91 24 0
91 23 0
91 26 0
91 25 0
91 28 0
91 27 0
91 30 0
91 29 0
91 32 0
91 31 0
91 34 0
91 33 0
91 36 0
91 35 0
91 38 0
91 37 0
91 40 0
91 39 0
91 42 0
91 41 0
91 44 0
91 43 0
91 46 0
91 45 0
91 48 0
91 47 0
91 50 0
91 49 0
91 52 0
91 51 0
91 54 0
91 53 0
91 56 0
91 55 0
91 58 0
91 57 0
91 60 0
91 59 0
91 62 0
91 61 0
91 64 0
91 63 0
91 66 0
91 65 0
91 68 0
91 67 0
91 70 0
91 69 0
91 72 0
91 71 0
91 74 0
91 73 0
91 76 0
91 75 0
91 78 0
91 77 0
91 80 0
91 79 0
91 82 0
91 81 0
91 84 0
91 83 0
91 86 0
91 85 0
91 88 0
91 87 0
91 90 0
91 89 0
91 92 0
93 2 0
93 1 0
93 4 0
93 3 0
93 6 0
93 5 0
93 8 0
93 7 0
93 10 0
93 9 0
93 12 0
93 11 0
93 14 0
93 13 0
93 16 0
93 15 0
93 18 0
93 17 0
93 20 0
93 19 0
93 22 0
93 21 0
93 24 0
93 23 0
93 26 0
93 25 0
93 28 0
93 27 0
93 30 0
93 29 0
93 32 0
93 31 0
93 34 0
93 33 0
93 36 0
93 35 0
93 38 0
93 37 0
93 40 0
93 39 0
93 42 0
93 41 0
93 44 0
93 43 0
93 46 0
93 45 0
93 48 0
93 47 0
93 50 0
93 49 0
93 52 0
93 51 0
93 54 0
93 53 0
93 56 0
93 55 0
93 58 0
93 57 0
93 60 0
93 59 0
93 62 0
93 61 0
93 64 0
93 63 0
93 66 0
93 65 0
93 68 0
93 67 0
93 70 0
93 69 0
93 72 0
93 71 0
93 74 0
93 73 0
93 76 0
93 75 0
93 78 0
93 77 0
93 80 0
93 79 0
93 82 0
93 81 0
93 84 0
93 83 0
93 86 0
93 85 0
93 88 0
93 87 0
93 90 0
93 89 0
93 92 0
93 91 0
93 94 0
95 2 0
95 1 0
95 4 0
95 3 0
95 6 0
95 5 0
95 8 0
95 7 0
95 10 0
95 9 0
95 12 0
95 11 0
95 14 0
95 13 0
95 16 0
95 15 0
95 18 0
95 17 0
95 20 0
95 19 0
95 22 0
95 21 0
95 24 0
95 23 0
95 26 0
95 25 0
95 28 0
95 27 0
95 30 0
95 29 0
95 32 0
95 31 0
95 34 0
95 33 0
95 36 0
95 35 0
95 38 0
95 37 0
95 40 0
95 39 0
95 42 0
95 41 0
95 44 0
95 43 0
95 46 0
95 45 0
95 48 0
95 47 0
95 50 0
95 49 0
95 52 0
95 51 0
95 54 0
95 53 0
95 56 0
95 55 0
95 58 0
95 57 0
95 60 0
95 59 0
95 62 0
95 61 0
95 64 0
95 63 0
95 66 0
95 65 0
95 68 0
95 67 0
95 70 0
95 69 0
95 72 0
95 71 0
95 74 0
95 73 0
95 76 0
95 75 0
95 78 0
95 77 0
95 80 0
95 79 0
95 82 0
95 81 0
95 84 0
95 83 0
95 86 0
95 85 0
95 88 0
95 87 0
95 90 0
95 89 0
95 92 0
95 91 0
95 94 0
95 93 0
95 96 0
97 2 0
97 1 0
97 4 0
97 3 0
97 6 0
97 5 0
97 8 0
97 7 0
97 10 0
97 9 0
97 12 0
97 11 0
97 14 0
97 13 0
97 16 0
97 15 0
97 18 0
97 17 0
97 20 0
97 19 0
97 22 0
97 21 0
97 24 0
97 23 0
97 26 0
97 25 0
97 28 0
97 27 0
97 30 0
97 29 0
97 32 0
97 31 0
97 34 0
97 33 0
97 36 0
97 35 0
97 38 0
97 37 0
97 40 0
97 39 0
97 42 0
97 41 0
97 44 0
97 43 0
97 46 0
97 45 0
97 48 0
97 47 0
97 50 0
97 49 0
97 52 0
97 51 0
97 54 0
97 53 0
97 56 0
97 55 0
97 58 0
97 57 0
97 60 0
97 59 0
97 62 0
97 61 0
97 64 0
97 63 0
97 66 0
97 65 0
97 68 0
97 67 0
97 70 0
97 69 0
97 72 0
97 71 0
97 74 0
97 73 0
97 76 0
97 75 0
97 78 0
97 77 0
97 80 0
97 79 0
97 82 0
97 81 0
97 84 0
97 83 0
97 86 0
97 85 0
97 88 0
97 87 0
97 90 0
97 89 0
97 92 0
97 91 0
97 94 0
97 93 0
97 96 0
97 95 0
97 98 0
99 2 0
99 1 0
99 4 0
99 3 0
99 6 0
99 5 0
99 8 0
99 7 0
99 10 0
99 9 0
99 12 0
99 11 0
99 14 0
99 13 0
99 16 0
99 15 0
99 18 0
99 17 0
99 20 0
99 19 0
99 22 0
99 21 0
99 24 0
99 23 0
99 26 0
99 25 0
99 28 0
99 27 0
99 30 0
99 29 0
99 32 0
99 31 0
99 34 0
99 33 0
99 36 0
99 35 0
99 38 0
99 37 0
99 40 0
99 39 0
99 42 0
99 41 0
99 44 0
99 43 0
99 46 0
99 45 0
99 48 0
99 47 0
99 50 0
99 49 0
99 52 0
99 51 0
99 54 0
99 53 0
99 56 0
99 55 0
99 58 0
99 57 0
99 60 0
99 59 0
99 62 0
99 61 0
99 64 0
99 63 0
99 66 0
99 65 0
99 68 0
99 67 0
99 70 0
99 69 0
99 72 0
99 71 0
99 74 0
99 73 0
99 76 0
99 75 0
99 78 0
99 77 0
99 80 0
99 79 0
99 82 0
99 81 0
99 84 0
99 83 0
99 86 0
99 85 0
99 88 0
99 87 0
99 90 0
99 89 0
99 92 0
99 91 0
99 94 0
99 93 0
99 96 0
99 95 0
99 98 0
99 97 0
99 100 0
